Grasp exp. instance_n_15_m_5_id_5.lp tipoLifted 0 szPool 5 nIteration 100 alpha 0.4 
Academic license - for non-commercial use only
Read LP format model from file ../input/instancesGenerated/instance_n_15_m_5_id_5.lp
Reading time = 0.00 seconds
: 5 rows, 15 columns, 75 nonzeros
Optimize a model with 5 rows, 15 columns and 75 nonzeros
Variable types: 0 continuous, 15 integer (15 binary)
Coefficient statistics:
  Matrix range     [1e+00, 1e+01]
  Objective range  [1e+00, 9e+00]
  Bounds range     [1e+00, 1e+00]
  RHS range        [4e+01, 5e+01]
Found heuristic solution: objective 34.0000000

Explored 0 nodes (0 simplex iterations) in 0.00 seconds
Thread count was 1 (of 8 available processors)

Solution count 1: 34 
No other solutions better than 0

Solution limit reached
Best objective 3.400000000000e+01, best bound -, gap -
C_1:	 1.00 x_1  = 0.622685 + 6.00 x_2  = 0.000000 + 9.00 x_3  = 0.060185 + 2.00 x_4  = 1.000000 + 8.00 x_5  = 1.000000 + 8.00 x_6  = 0.770833 + 9.00 x_7  = 0.000000 + 8.00 x_8  = 0.000000 + 8.00 x_9  = 0.270833 + 4.00 x_10  = 1.000000 + 7.00 x_11  = 0.000000 + 10.00 x_12  = 1.000000 + 5.00 x_13  = 0.900463 + 1.00 x_14  = 0.000000 + 10.00 x_15  = 1.000000 <= 48.00
C_2:	 9.00 x_1  = 0.622685 + 6.00 x_2  = 0.000000 + 2.00 x_3  = 0.060185 + 5.00 x_4  = 1.000000 + 4.00 x_5  = 1.000000 + 9.00 x_6  = 0.770833 + 4.00 x_7  = 0.000000 + 8.00 x_8  = 0.000000 + 9.00 x_9  = 0.270833 + 10.00 x_10  = 1.000000 + 8.00 x_11  = 0.000000 + 2.00 x_12  = 1.000000 + 1.00 x_13  = 0.900463 + 3.00 x_14  = 0.000000 + 5.00 x_15  = 1.000000 <= 42.00
C_3:	 9.00 x_1  = 0.622685 + 5.00 x_2  = 0.000000 + 10.00 x_3  = 0.060185 + 9.00 x_4  = 1.000000 + 6.00 x_5  = 1.000000 + 7.00 x_6  = 0.770833 + 8.00 x_7  = 0.000000 + 5.00 x_8  = 0.000000 + 7.00 x_9  = 0.270833 + 6.00 x_10  = 1.000000 + 8.00 x_11  = 0.000000 + 5.00 x_12  = 1.000000 + 5.00 x_13  = 0.900463 + 4.00 x_14  = 0.000000 + 5.00 x_15  = 1.000000 <= 49.00
C_4:	 6.00 x_1  = 0.622685 + 4.00 x_2  = 0.000000 + 3.00 x_3  = 0.060185 + 7.00 x_4  = 1.000000 + 1.00 x_5  = 1.000000 + 6.00 x_6  = 0.770833 + 6.00 x_7  = 0.000000 + 6.00 x_8  = 0.000000 + 5.00 x_9  = 0.270833 + 6.00 x_10  = 1.000000 + 8.00 x_11  = 0.000000 + 4.00 x_12  = 1.000000 + 9.00 x_13  = 0.900463 + 8.00 x_14  = 0.000000 + 6.00 x_15  = 1.000000 <= 42.00
C_5:	 3.00 x_1  = 0.622685 + 8.00 x_2  = 0.000000 + 3.00 x_3  = 0.060185 + 3.00 x_4  = 1.000000 + 6.00 x_5  = 1.000000 + 8.00 x_6  = 0.770833 + 1.00 x_7  = 0.000000 + 4.00 x_8  = 0.000000 + 4.00 x_9  = 0.270833 + 7.00 x_10  = 1.000000 + 9.00 x_11  = 0.000000 + 1.00 x_12  = 1.000000 + 3.00 x_13  = 0.900463 + 5.00 x_14  = 0.000000 + 7.00 x_15  = 1.000000 <= 36.00
Solution initial: 55.701389 
Number Constraints Used in Cover:5
GRASP Method!
Number cuts repeat: 0
value: 55.701389
Number Constraints Used in Cover:20
GRASP Method!
Number cuts repeat: 0
value: 55.701389
Number Constraints Used in Cover:29
GRASP Method!
Number cuts repeat: 0
value: 55.701389
Number Constraints Used in Cover:39
GRASP Method!
Number cuts repeat: 0
value: 55.701389
Number Constraints Used in Cover:49
GRASP Method!
Number cuts repeat: 0
value: 55.701389
Number Constraints Used in Cover:59
GRASP Method!
Number cuts repeat: 0
value: 55.701389
Number Constraints Used in Cover:66
GRASP Method!
Number cuts repeat: 0
value: 55.701389
Number Constraints Used in Cover:74
GRASP Method!
Number cuts repeat: 0
value: 55.156250
Number Constraints Used in Cover:82
GRASP Method!
Number cuts repeat: 0
value: 55.156250
Number Constraints Used in Cover:86
GRASP Method!
Number cuts repeat: 0
value: 55.156250
Number Constraints Used in Cover:93
GRASP Method!
Number cuts repeat: 0
value: 55.156250
Number Constraints Used in Cover:101
GRASP Method!
Number cuts repeat: 0
value: 55.156250
Number Constraints Used in Cover:108
GRASP Method!
Number cuts repeat: 0
value: 55.156250
Number Constraints Used in Cover:116
GRASP Method!
Number cuts repeat: 0
value: 55.156250
Number Constraints Used in Cover:123
GRASP Method!
Number cuts repeat: 0
value: 55.156250
Number Constraints Used in Cover:129
GRASP Method!
Number cuts repeat: 0
value: 55.156250
Number Constraints Used in Cover:133
GRASP Method!
Number cuts repeat: 0
value: 55.156250
Number Constraints Used in Cover:138
GRASP Method!
Number cuts repeat: 0
value: 55.156250
Number Constraints Used in Cover:142
GRASP Method!
Number cuts repeat: 0
value: 55.156250
Number Constraints Used in Cover:153
GRASP Method!
Number cuts repeat: 0
value: 55.156250
Number Constraints Used in Cover:157
GRASP Method!
Number cuts repeat: 0
value: 55.156250
Number Constraints Used in Cover:162
GRASP Method!
Number cuts repeat: 0
value: 55.156250
Number Constraints Used in Cover:171
GRASP Method!
Number cuts repeat: 0
value: 55.156250
Number Constraints Used in Cover:172
GRASP Method!
Number cuts repeat: 0
value: 55.156250
Number Constraints Used in Cover:175
GRASP Method!
Number cuts repeat: 0
value: 55.156250
Number Constraints Used in Cover:185
GRASP Method!
Number cuts repeat: 0
value: 55.156250
Number Constraints Used in Cover:194
GRASP Method!
Number cuts repeat: 0
value: 55.156250
Number Constraints Used in Cover:197
GRASP Method!
Number cuts repeat: 0
value: 55.156250
Number Constraints Used in Cover:204
GRASP Method!
Number cuts repeat: 0
value: 55.156250
Number Constraints Used in Cover:213
GRASP Method!
Number cuts repeat: 0
value: 55.156250
Number Constraints Used in Cover:223
GRASP Method!
Number cuts repeat: 0
value: 55.156250
Number Constraints Used in Cover:242
GRASP Method!
Number cuts repeat: 0
value: 55.156250
Number Constraints Used in Cover:261
GRASP Method!
Number cuts repeat: 0
value: 55.156250
Number Constraints Used in Cover:280
GRASP Method!
Number cuts repeat: 0
value: 55.156250
Number Constraints Used in Cover:292
GRASP Method!
Number cuts repeat: 0
value: 55.156250
Number Constraints Used in Cover:303
GRASP Method!
Number cuts repeat: 0
value: 55.156250
Number Constraints Used in Cover:311
GRASP Method!
Number cuts repeat: 0
value: 55.156250
Number Constraints Used in Cover:325
GRASP Method!
Number cuts repeat: 0
value: 55.156250
Number Constraints Used in Cover:335
GRASP Method!
Number cuts repeat: 0
value: 55.156250
Number Constraints Used in Cover:342
GRASP Method!
Number cuts repeat: 0
value: 55.156250
Number Constraints Used in Cover:353
GRASP Method!
Number cuts repeat: 0
value: 55.156250
Number Constraints Used in Cover:365
GRASP Method!
Number cuts repeat: 0
value: 55.156250
Number Constraints Used in Cover:373
GRASP Method!
Number cuts repeat: 0
value: 55.156250
Number Constraints Used in Cover:380
GRASP Method!
Number cuts repeat: 0
value: 55.156250
Number Constraints Used in Cover:386
GRASP Method!
Number cuts repeat: 0
value: 55.156250
Number Constraints Used in Cover:398
GRASP Method!
Number cuts repeat: 0
value: 55.156250
Number Constraints Used in Cover:405
GRASP Method!
Number cuts repeat: 0
value: 55.156250
Number Constraints Used in Cover:407
GRASP Method!
Number cuts repeat: 0
value: 55.156250
Number Constraints Used in Cover:415
GRASP Method!
Number cuts repeat: 0
value: 55.156250
Number Constraints Used in Cover:423
GRASP Method!
Number cuts repeat: 0
value: 55.156250
Number Constraints Used in Cover:424
GRASP Method!
Number cuts repeat: 0
value: 55.156250
Number Constraints Used in Cover:431
GRASP Method!
Number cuts repeat: 0
value: 55.156250
Number Constraints Used in Cover:439
GRASP Method!
Number cuts repeat: 0
value: 55.156250
Number Constraints Used in Cover:447
GRASP Method!
Number cuts repeat: 0
value: 55.156250
Number Constraints Used in Cover:451
GRASP Method!
Number cuts repeat: 0
value: 55.156250
Number Constraints Used in Cover:458
GRASP Method!
Number cuts repeat: 0
value: 55.156250
Number Constraints Used in Cover:464
GRASP Method!
Number cuts repeat: 0
value: 55.156250
Number Constraints Used in Cover:470
GRASP Method!
Number cuts repeat: 0
value: 55.156250
Number Constraints Used in Cover:480
GRASP Method!
Number cuts repeat: 0
value: 55.156250
Number Constraints Used in Cover:486
GRASP Method!
Number cuts repeat: 0
value: 55.156250
Number Constraints Used in Cover:489
GRASP Method!
Number cuts repeat: 0
value: 55.156250
Number Constraints Used in Cover:496
GRASP Method!
Number cuts repeat: 0
value: 55.156250
Number Constraints Used in Cover:502
GRASP Method!
Number cuts repeat: 0
value: 55.156250
Number Constraints Used in Cover:507
GRASP Method!
Number cuts repeat: 0
value: 55.156250
Number Constraints Used in Cover:513
GRASP Method!
Number cuts repeat: 0
value: 55.156250
Number Constraints Used in Cover:518
GRASP Method!
Number cuts repeat: 0
value: 55.156250
Number Constraints Used in Cover:523
GRASP Method!
Number cuts repeat: 0
value: 55.156250
Number Constraints Used in Cover:527
GRASP Method!
Number cuts repeat: 0
value: 55.156250
Number Constraints Used in Cover:534
GRASP Method!
Number cuts repeat: 0
value: 55.156250
Number Constraints Used in Cover:539
GRASP Method!
Number cuts repeat: 0
value: 55.156250
Number Constraints Used in Cover:540
GRASP Method!
Number cuts repeat: 0
value: 55.156250
Number Constraints Used in Cover:546
GRASP Method!
Number cuts repeat: 0
value: 55.156250
Number Constraints Used in Cover:548
GRASP Method!
Number cuts repeat: 0
value: 55.156250
Number Constraints Used in Cover:555
GRASP Method!
Number cuts repeat: 0
value: 55.156250
Number Constraints Used in Cover:558
GRASP Method!
Number cuts repeat: 0
value: 55.156250
Number Constraints Used in Cover:560
GRASP Method!
Number cuts repeat: 0
value: 55.156250
Number Constraints Used in Cover:564
GRASP Method!
Number cuts repeat: 0
value: 55.156250
Number Constraints Used in Cover:569
GRASP Method!
Number cuts repeat: 0
value: 55.156250
Number Constraints Used in Cover:572
GRASP Method!
Number cuts repeat: 0
value: 55.156250
Number Constraints Used in Cover:577
GRASP Method!
Number cuts repeat: 0
value: 55.156250
Number Constraints Used in Cover:581
GRASP Method!
Number cuts repeat: 0
value: 55.156250
Number Constraints Used in Cover:585
GRASP Method!
Number cuts repeat: 0
value: 55.156250
Number Constraints Used in Cover:586
GRASP Method!
Number cuts repeat: 0
value: 55.156250
Number Constraints Used in Cover:587
GRASP Method!
Number cuts repeat: 0
value: 55.156250
Number Constraints Used in Cover:589
GRASP Method!
Number cuts repeat: 0
value: 55.156250
Number Constraints Used in Cover:590
GRASP Method!
Number cuts repeat: 0
value: 55.156250
Number Constraints Used in Cover:592
GRASP Method!
Number cuts repeat: 0
value: 55.156250
Number Constraints Used in Cover:599
GRASP Method!
Number cuts repeat: 0
value: 55.156250
Number Constraints Used in Cover:604
GRASP Method!
Number cuts repeat: 0
value: 55.156250
Number Constraints Used in Cover:608
GRASP Method!
Number cuts repeat: 0
value: 55.156250
Number Constraints Used in Cover:611
GRASP Method!
Number cuts repeat: 0
value: 55.156250
Number Constraints Used in Cover:613
GRASP Method!
Number cuts repeat: 0
value: 55.156250
Number Constraints Used in Cover:620
GRASP Method!
Number cuts repeat: 0
value: 55.156250
Number Constraints Used in Cover:624
GRASP Method!
Number cuts repeat: 0
value: 55.156250
Number Constraints Used in Cover:626
GRASP Method!
Number cuts repeat: 0
value: 55.156250
Number Constraints Used in Cover:627
GRASP Method!
Number cuts repeat: 0
value: 55.156250
Number Constraints Used in Cover:631
GRASP Method!
Number cuts repeat: 0
value: 55.156250
Number Constraints Used in Cover:636
GRASP Method!
Number cuts repeat: 0
value: 55.156250
Number Constraints Used in Cover:638
GRASP Method!
Number cuts repeat: 0
value: 55.156250
Number Constraints Used in Cover:639
GRASP Method!
Number cuts repeat: 0
value: 55.156250
Number Constraints Used in Cover:641
GRASP Method!
Number cuts repeat: 0
value: 55.156250
Number Constraints Used in Cover:645
GRASP Method!
Number cuts repeat: 0
value: 55.156250
Number Constraints Used in Cover:647
GRASP Method!
Number cuts repeat: 0
value: 55.156250
Number Constraints Used in Cover:655
GRASP Method!
Number cuts repeat: 0
value: 55.156250
Number Cuts Final: 654
